5 5
4 40 0 23 3 40 2 74 1 74
1 50 4 10 0 94 2 4 3 1
3 43 2 83 0 5 4 94 1 90
2 34 0 66 4 24 3 14 1 41
1 42 0 13 3 29 4 65 2 46
-1
0 2 5
0 1 5
0 2 3 4 5
0 2 4 5
0 3 5
-2
84 313
63 176
129 172 239 352
103 172 251
107 281

372 6
1 16 12 21 7
5 20 19 4 14
15 11 3 24 8
10 2 18 22 9
0 6 17 13 23
